30
131
5
46
1
84
35
19
0 1
0 3
0 15
0 16
0 24
0 26
0 28
1 3
1 6
1 8
1 13
1 16
1 23
1 24
1 28
2 4
2 7
2 13
2 14
2 15
2 20
2 21
3 5
3 7
3 8
3 12
3 13
3 14
3 16
3 19
3 20
3 26
3 27
3 29
4 6
4 9
4 10
4 12
4 13
4 15
4 18
4 19
4 20
4 28
4 29
5 6
5 7
5 9
5 15
6 13
6 17
6 18
6 23
6 25
6 29
7 10
7 16
7 19
7 20
7 23
7 25
7 26
7 29
8 13
8 14
8 18
8 23
8 24
8 28
8 29
9 10
9 12
9 17
9 18
9 25
9 27
10 11
10 12
10 15
10 19
10 23
10 24
11 14
11 17
11 20
11 22
11 23
11 24
11 28
12 13
12 17
12 19
12 24
12 29
13 18
13 22
13 23
13 25
13 28
14 16
14 28
15 18
15 19
15 24
16 17
16 22
16 23
16 24
16 26
17 18
17 21
17 24
18 20
18 26
18 27
19 20
19 21
19 25
20 21
20 23
20 24
20 27
21 22
21 25
21 29
22 23
22 29
23 24
23 29
24 25
24 28
28 8 29 1 7 0
17 11 5 19 18 4
6 21 9 27 16 10
26 13 12 23 15 20
3 2 22 14 25 24
